TOUR_SECTION
1
151
52
88
201
134
50
98
7
77
119
97
192
70
146
174
72
53
198
57
157
188
90
104
197
154
142
91
67
10
41
187
132
145
124
144
162
61
166
175
95
23
111
112
99
169
96
128
165
131
74
80
106
117
123
33
182
129
92
28
93
12
138
179
190
195
40
102
8
89
4
127
35
54
73
196
55
191
14
194
139
36
121
3
161
122
49
168
170
150
101
110
25
155
22
136
69
120
84
147
143
29
38
13
158
30
85
172
21
167
116
109
18
59
140
31
164
16
141
47
45
24
130
78
193
189
68
94
62
19
37
126
177
6
176
183
75
42
180
60
200
125
63
173
32
163
11
44
135
51
9
76
48
79
184
86
186
133
43
39
87
64
107
114
156
199
100
113
27
66
15
149
81
82
56
17
148
152
103
65
5
105
181
108
71
26
115
34
2
159
83
160
58
137
171
118
20
153
178
46
185
-1
EOF